c preprocessed version of 1i2t_graph, 61 vertices, 644 edges
p td 61 644
59 60
58 60
58 59
57 60
57 59
57 58
56 60
56 59
56 58
56 57
55 60
55 59
55 58
55 57
55 56
54 59
54 58
54 57
54 56
54 55
53 60
53 58
53 57
53 56
53 55
53 54
52 59
52 57
52 56
52 55
52 54
52 53
51 59
51 58
51 55
51 54
51 53
51 52
50 58
50 57
50 55
50 54
50 53
50 52
50 51
49 56
49 54
49 53
49 52
49 51
49 50
48 55
48 52
48 51
48 50
48 49
47 54
47 51
47 50
47 49
47 48
46 53
46 51
46 50
46 49
46 48
46 47
45 53
45 52
45 50
45 49
45 48
45 47
45 46
44 51
44 48
44 47
44 46
44 45
43 50
43 48
43 47
43 46
43 45
43 44
42 49
42 47
42 46
42 45
42 44
42 43
41 48
41 47
41 46
41 45
41 44
41 43
41 42
40 44
40 42
40 41
39 49
39 48
39 45
39 42
39 41
39 40
38 52
38 51
38 49
38 48
38 47
38 46
38 45
38 44
38 42
38 41
38 40
38 39
37 48
37 47
37 45
37 44
37 43
37 41
37 40
37 39
37 38
36 44
36 41
36 40
36 39
36 38
36 37
35 52
35 49
35 48
35 45
35 44
35 40
35 39
35 38
35 37
35 36
34 52
34 51
34 49
34 48
34 47
34 45
34 44
34 39
34 38
34 37
34 36
34 35
33 48
33 44
33 41
33 40
33 38
33 37
33 36
33 35
33 34
32 40
32 39
32 37
32 36
32 35
32 34
32 33
31 48
31 38
31 37
31 36
31 35
31 34
31 33
31 32
30 55
30 52
30 51
30 49
30 48
30 45
30 44
30 39
30 38
30 37
30 35
30 34
30 33
30 32
30 31
29 59
29 55
29 52
29 48
29 35
29 34
29 31
29 30
28 52
28 49
28 45
28 39
28 38
28 35
28 32
28 30
28 29
27 56
27 55
27 53
27 52
27 51
27 49
27 48
27 47
27 46
27 45
27 44
27 39
27 38
27 37
27 36
27 35
27 34
27 30
27 29
27 28
26 59
26 56
26 55
26 53
26 52
26 51
26 49
26 48
26 45
26 38
26 35
26 34
26 30
26 29
26 28
26 27
25 56
25 52
25 29
25 28
25 27
25 26
24 52
24 49
24 48
24 45
24 39
24 38
24 35
24 28
24 27
24 26
24 25
23 60
23 57
23 56
23 55
23 54
23 53
23 52
23 51
23 50
23 49
23 48
23 46
23 45
23 39
23 38
23 35
23 30
23 28
23 27
23 26
23 25
23 24
22 60
22 59
22 57
22 56
22 55
22 53
22 52
22 49
22 29
22 27
22 26
22 25
22 24
22 23
21 56
21 52
21 49
21 28
21 26
21 25
21 24
21 23
21 22
20 53
20 52
20 49
20 45
20 27
20 25
20 24
20 23
20 22
20 21
19 60
19 59
19 57
19 56
19 55
19 54
19 53
19 52
19 50
19 49
19 45
19 27
19 26
19 25
19 24
19 23
19 22
19 21
19 20
18 60
18 57
18 56
18 53
18 52
18 49
18 23
18 22
18 20
18 19
17 53
17 49
17 23
17 21
17 20
17 19
17 18
16 57
16 56
16 55
16 54
16 53
16 52
16 51
16 50
16 49
16 48
16 47
16 46
16 45
16 38
16 27
16 26
16 24
16 23
16 22
16 21
16 20
16 19
16 18
16 17
15 53
15 52
15 51
15 50
15 49
15 48
15 47
15 46
15 45
15 43
15 42
15 38
15 27
15 23
15 19
15 18
15 17
15 16
14 49
14 46
14 45
14 42
14 20
14 17
14 16
14 15
13 49
13 24
13 23
13 22
13 21
13 20
13 19
13 18
13 17
13 16
13 15
13 14
12 56
12 53
12 52
12 50
12 49
12 48
12 46
12 45
12 44
12 42
12 39
12 38
12 35
12 34
12 30
12 28
12 27
12 26
12 25
12 24
12 23
12 22
12 21
12 20
12 19
12 18
12 17
12 16
12 15
12 14
12 13
11 49
11 48
11 46
11 45
11 44
11 43
11 42
11 41
11 40
11 39
11 38
11 35
11 27
11 24
11 23
11 20
11 16
11 15
11 14
11 13
11 12
10 45
10 42
10 39
10 24
10 21
10 20
10 17
10 14
10 13
10 12
10 11
9 49
9 45
9 39
9 38
9 35
9 28
9 27
9 25
9 24
9 23
9 21
9 20
9 17
9 16
9 14
9 13
9 12
9 11
9 10
8 52
8 49
8 48
8 46
8 45
8 44
8 42
8 41
8 39
8 38
8 36
8 35
8 34
8 30
8 28
8 27
8 26
8 25
8 24
8 23
8 20
8 19
8 16
8 15
8 13
8 12
8 11
8 10
8 9
7 45
7 42
7 40
7 39
7 38
7 36
7 35
7 27
7 14
7 12
7 11
7 10
7 9
7 8
6 39
6 28
6 24
6 21
6 13
6 10
6 9
6 8
6 7
5 49
5 45
5 39
5 38
5 35
5 29
5 28
5 27
5 26
5 25
5 24
5 23
5 21
5 20
5 13
5 12
5 9
5 8
5 7
5 6
4 52
4 49
4 48
4 45
4 40
4 39
4 38
4 36
4 35
4 34
4 33
4 32
4 31
4 30
4 28
4 27
4 24
4 12
4 11
4 9
4 8
4 7
4 6
4 5
3 39
3 36
3 35
3 32
3 8
3 7
3 6
3 5
3 4
2 35
2 28
2 25
2 24
2 21
2 9
2 7
2 6
2 5
2 4
2 3
1 39
1 36
1 35
1 34
1 32
1 31
1 30
1 29
1 28
1 27
1 25
1 24
1 8
1 5
1 4
1 3
1 2
0 39
0 36
0 35
0 32
0 28
0 8
0 7
0 4
0 3
0 2
0 1
